
******************************************************************************
This program contains Ipopt, a library for large-scale nonlinear optimization.
 Ipopt is released as open source code under the Eclipse Public License (EPL).
         For more information visit http://projects.coin-or.org/Ipopt

This version of Ipopt was compiled from source code available at
    https://github.com/IDAES/Ipopt as part of the Institute for the Design of
    Advanced Energy Systems Process Systems Engineering Framework (IDAES PSE
    Framework) Copyright (c) 2018-2019. See https://github.com/IDAES/idaes-pse.

This version of Ipopt was compiled using HSL, a collection of Fortran codes
    for large-scale scientific computation.  All technical papers, sales and
    publicity material resulting from use of the HSL codes within IPOPT must
    contain the following acknowledgement:
        HSL, a collection of Fortran codes for large-scale scientific
        computation. See http://www.hsl.rl.ac.uk.
******************************************************************************

This is Ipopt version 3.13.2, running with linear solver ma27.

Number of nonzeros in equality constraint Jacobian...:     1210
Number of nonzeros in inequality constraint Jacobian.:        0
Number of nonzeros in Lagrangian Hessian.............:     1376

Total number of variables............................:      480
                     variables with only lower bounds:      128
                variables with lower and upper bounds:      288
                     variables with only upper bounds:        0
Total number of equality constraints.................:      477
Total number of inequality constraints...............:        0
        inequality constraints with only lower bounds:        0
   inequality constraints with lower and upper bounds:        0
        inequality constraints with only upper bounds:        0

iter    objective    inf_pr   inf_du lg(mu)  ||d||  lg(rg) alpha_du alpha_pr  ls
   0  0.0000000e+00 2.12e+00 4.66e-15  -1.0 0.00e+00    -  0.00e+00 0.00e+00   0
   1  3.4005457e+01 4.99e-01 4.10e+06  -1.0 5.95e+05    -  1.93e-01 9.90e-01h  1
   2  3.3636220e+01 5.17e-01 3.75e+07  -1.0 8.65e+05  -4.0 3.99e-01 2.16e-01h  3
   3  2.7133130e+01 1.32e+01 1.23e+08  -1.0 2.42e+06  -4.5 2.43e-01 2.87e-01f  1
   4  2.7464677e+01 6.69e+00 2.27e+08  -1.0 1.73e+05  -2.2 2.05e-01 4.95e-01h  2
   5  2.3228308e+01 1.36e+00 4.72e+08  -1.0 1.62e+05  -2.7 2.71e-01 9.90e-01h  1
   6  1.8779249e+01 5.88e-01 9.37e+07  -1.0 1.10e+05  -3.2 4.00e-01 9.90e-01h  1
   7  1.6847378e+01 3.72e-01 4.42e+07  -1.0 2.06e+05  -3.7 5.83e-01 4.95e-01h  2
   8  1.7319516e+01 7.34e-02 3.34e+06  -1.0 1.11e+05  -3.3 9.48e-01 9.90e-01h  1
   9  1.7477094e+01 3.64e-03 1.20e+06  -1.0 2.93e+04  -3.7 9.90e-01 9.90e-01h  1
iter    objective    inf_pr   inf_du lg(mu)  ||d||  lg(rg) alpha_du alpha_pr  ls
  10  1.7485248e+01 4.25e-05 6.35e+04  -1.7 1.41e+03  -4.2 9.90e-01 9.90e-01h  1
  11  1.7485288e+01 9.10e-10 6.51e+00  -5.7 1.64e+01  -4.7 1.00e+00 1.00e+00h  1
  12  1.3091628e+01 4.37e+01 1.28e+11  -8.6 7.20e+05    -  3.66e-01 5.00e-01f  2
In iteration 12, 32 Slacks too small, adjusting variable bounds
  13  6.7839995e+00 1.78e-01 6.84e+11  -8.6 1.57e+05  -5.2 6.41e-01 1.00e+00h  1
  14  6.7378013e+00 3.97e-01 5.68e+10  -8.6 8.33e+04  -5.6 9.53e-01 1.00e+00h  1
  15  6.4613690e+00 6.34e-04 1.43e+04  -8.6 2.12e+04  -6.1 1.00e+00 1.00e+00h  1
  16  6.4583033e+00 2.60e-07 2.34e+01  -8.6 6.34e+02  -6.6 1.00e+00 1.00e+00h  1
  17  6.4555046e+00 4.63e-08 7.10e-02  -8.6 9.85e+01  -7.1 1.00e+00 1.00e+00f  1
  18  4.7128256e+00 4.63e+00 1.11e+00  -8.6 8.66e+04    -  1.00e+00 1.00e+00f  1
  19  4.3341751e+00 7.92e-03 3.63e+00  -8.6 8.67e+04    -  1.00e+00 1.00e+00h  1
iter    objective    inf_pr   inf_du lg(mu)  ||d||  lg(rg) alpha_du alpha_pr  ls
  20  4.3690212e+00 1.61e-03 1.45e-01  -8.6 2.02e+04    -  1.00e+00 1.00e+00h  1
  21  4.3710642e+00 1.87e-06 1.34e-03  -8.6 2.19e+03    -  1.00e+00 1.00e+00h  1
  22  4.3711024e+00 3.05e-11 3.52e-09  -8.6 4.44e+00    -  1.00e+00 1.00e+00h  1

Number of Iterations....: 22

                                   (scaled)                 (unscaled)
Objective...............:   4.3711023810822178e+00    4.3711023810822178e+00
Dual infeasibility......:   3.5168195078888468e-09    3.5168195078888468e-09
Constraint violation....:   3.0546232210326707e-11    3.0546232210326707e-11
Complementarity.........:   2.5059035596800622e-09    2.5059035596800622e-09
Overall NLP error.......:   3.0546232210326707e-11    3.5168195078888468e-09


Number of objective function evaluations             = 33
Number of objective gradient evaluations             = 23
Number of equality constraint evaluations            = 33
Number of inequality constraint evaluations          = 0
Number of equality constraint Jacobian evaluations   = 23
Number of inequality constraint Jacobian evaluations = 0
Number of Lagrangian Hessian evaluations             = 22
Total CPU secs in IPOPT (w/o function evaluations)   =      0.064
Total CPU secs in NLP function evaluations           =      0.676

EXIT: Optimal Solution Found.
